(set-logic QF_S)
(declare-fun V12 () String )
(declare-fun V14 () String )
(declare-fun V26 () String )
(declare-fun V23 () String )
(declare-fun V8 () String )
(declare-fun V17 () String )
(declare-fun V6 () String )
(declare-fun V13 () String )
(declare-fun V7 () String )
(declare-fun V22 () String )
(declare-fun V20 () String )
(declare-fun V1 () String )
(declare-fun V25 () String )
(declare-fun V5 () String )
(declare-fun V9 () String )
(declare-fun V10 () String )
(declare-fun V15 () String )
(declare-fun V3 () String )
(declare-fun V21 () String )
(declare-fun V16 () String )
(assert (= (str.++ V22 V23 ) (str.++ (str.++ V5 V6 ) V7 ) ) )
(assert (= (str.++ V22 V23 ) (str.++ (str.++ V12 "+" ) V13 ) ) )
(assert (= (str.++ V22 V23 ) (str.++ (str.++ V25 "+" ) V26 ) ) )
(assert (= (str.++ (str.++ V3 V22 ) V23 ) (str.++ (str.++ V14 "/" ) V15 ) ) )
(assert (= (str.++ (str.++ V3 V22 ) V23 ) (str.++ (str.++ V20 "/" ) V21 ) ) )
(assert (= (str.++ (str.++ V3 V22 ) V23 ) (str.++ (str.++ (str.++ V8 V9 ) V10 ) V17 ) ) )
(assert (= (str.++ (str.++ (str.++ V1 V3 ) V22 ) V23 ) (str.++ "mongodb://" V16 ) ) )
( check-sat )
